
n_res = 6;
rcap = [38, 37, 577, 566, 571, 614];
rtype = [1, 1, 2, 2, 2, 2];
n_tasks = 100;
modes =  [{1, 2, 3}, {4, 5, 6}, {7, 8, 9}, {10, 11, 12}, {13, 14, 15}, {16, 17, 18}, {19, 20, 21}, {22, 23, 24}, {25, 26, 27}, {28, 29, 30}, {31, 32, 33}, {34, 35, 36}, {37, 38, 39}, {40, 41, 42}, {43, 44, 45}, {46, 47, 48}, {49, 50, 51}, {52, 53, 54}, {55, 56, 57}, {58, 59, 60}, {61, 62, 63}, {64, 65, 66}, {67, 68, 69}, {70, 71, 72}, {73, 74, 75}, {76, 77, 78}, {79, 80, 81}, {82, 83, 84}, {85, 86, 87}, {88, 89, 90}, {91, 92, 93}, {94, 95, 96}, {97, 98, 99}, {100, 101, 102}, {103, 104, 105}, {106, 107, 108}, {109, 110, 111}, {112, 113, 114}, {115, 116, 117}, {118, 119, 120}, {121, 122, 123}, {124, 125, 126}, {127, 128, 129}, {130, 131, 132}, {133, 134, 135}, {136, 137, 138}, {139, 140, 141}, {142, 143, 144}, {145, 146, 147}, {148, 149, 150}, {151, 152, 153}, {154, 155, 156}, {157, 158, 159}, {160, 161, 162}, {163, 164, 165}, {166, 167, 168}, {169, 170, 171}, {172, 173, 174}, {175, 176, 177}, {178, 179, 180}, {181, 182, 183}, {184, 185, 186}, {187, 188, 189}, {190, 191, 192}, {193, 194, 195}, {196, 197, 198}, {199, 200, 201}, {202, 203, 204}, {205, 206, 207}, {208, 209, 210}, {211, 212, 213}, {214, 215, 216}, {217, 218, 219}, {220, 221, 222}, {223, 224, 225}, {226, 227, 228}, {229, 230, 231}, {232, 233, 234}, {235, 236, 237}, {238, 239, 240}, {241, 242, 243}, {244, 245, 246}, {247, 248, 249}, {250, 251, 252}, {253, 254, 255}, {256, 257, 258}, {259, 260, 261}, {262, 263, 264}, {265, 266, 267}, {268, 269, 270}, {271, 272, 273}, {274, 275, 276}, {277, 278, 279}, {280, 281, 282}, {283, 284, 285}, {286, 287, 288}, {289, 290, 291}, {292, 293, 294}, {295, 296, 297}, {298, 299, 300}];
succ =  [{19, 18, 17, 11, 9, 5}, {27, 25, 21, 19, 18, 10, 9}, {23, 19, 16, 15, 14, 10}, {27, 23, 17, 14, 10}, {21, 16, 14, 10}, {21, 17, 9}, {36, 25, 21, 18, 14}, {35, 31, 24, 19, 17}, {36, 35, 34, 28, 26, 14}, {37, 36, 35, 31, 30, 29, 28, 26, 24, 22, 20}, {41, 36, 35, 31, 30, 29, 28, 25, 24, 22}, {41, 36, 35, 30, 29, 25, 24, 22}, {31, 29, 24, 17}, {37, 31, 30, 29, 24, 22, 20}, {37, 31, 30, 28, 24, 22, 21}, {43, 42, 41, 36, 33, 32, 30, 25}, {43, 42, 41, 36, 30, 28, 25}, {41, 37, 35, 33, 31, 28, 26}, {37, 29, 22, 20}, {43, 42, 41, 38, 32}, {49, 45, 43, 32, 29}, {43, 42, 33, 32}, {45, 43, 42, 37, 32}, {43, 42, 38, 32}, {39, 38, 37, 34}, {50, 47, 42, 40, 38}, {47, 40, 39, 35}, {45, 44, 32}, {59, 58, 50, 47, 44, 42, 40}, {50, 49, 48, 47, 44, 40, 39}, {45, 44, 42, 40, 39}, {60, 59, 50, 48, 47, 46, 39}, {59, 49, 45, 44, 40}, {58, 53, 52, 50, 48, 47, 46, 44}, {59, 58, 53, 46, 44, 42}, {62, 60, 59, 57, 53, 50, 48, 45}, {52, 51, 49, 48, 46, 44}, {70, 59, 49, 45, 44}, {63, 62, 58, 57, 56, 55, 54, 53, 52, 51}, {62, 60, 55, 54, 53, 51, 46}, {57, 51, 48, 45}, {60, 57, 52, 51, 48}, {63, 51, 44}, {69, 62, 61, 60, 57, 55, 54}, {69, 63, 61, 58, 56, 54, 52}, {75, 73, 70, 69, 67, 63, 61, 57, 56}, {57, 55, 51}, {77, 70, 69, 56, 55, 54}, {69, 67, 60, 57, 56, 55}, {77, 73, 69, 68, 54}, {73, 70, 69, 67, 65, 61}, {77, 74, 73, 68, 67, 66, 65, 64}, {77, 76, 74, 69, 67, 66, 64}, {74, 67, 66, 65, 64}, {76, 75, 74, 73, 72, 68, 64}, {89, 78, 74, 72, 71, 65}, {89, 77, 74, 66, 64}, {100, 85, 82, 76, 75, 73, 67}, {89, 78, 72, 68, 66}, {100, 89, 85, 84, 79, 78, 77, 73, 72}, {89, 74, 68, 66}, {83, 81, 78, 74, 71, 68}, {89, 83, 81, 71, 68}, {85, 84, 83, 82, 81, 78, 71}, {100, 88, 85, 84, 83, 82, 81, 80, 76}, {87, 85, 83, 82, 81, 80, 71}, {89, 81, 79, 78, 72}, {100, 90, 87, 86, 85, 84, 82, 80}, {90, 89, 88, 82, 81, 80, 79}, {90, 88, 87, 81, 80, 79}, {100, 99, 90, 88, 79}, {97, 94, 90, 87, 86, 80}, {98, 90, 86, 83, 81}, {98, 97, 96, 94, 90, 87, 86}, {99, 97, 96, 94, 93, 92, 90, 86}, {98, 96, 94, 90, 87, 86}, {98, 96, 92, 86, 82}, {99, 98, 97, 88, 87}, {97, 96, 94, 93, 92, 86}, {99, 98, 95, 93, 92, 91}, {95, 94, 93, 92, 91}, {97, 95, 94, 93, 91}, {99, 96, 94, 92}, {97, 95, 92, 91}, {96, 93, 92}, {95, 91}, {93, 92}, {94, 91}, {92, 91}, {91}, {}, {}, {}, {}, {}, {}, {}, {}, {}, {}];
n_opt = 300;
dur = [1, 5, 7, 1, 3, 5, 5, 6, 8, 1, 5, 8, 1, 3, 8, 5, 8, 9, 5, 6, 10, 1, 4, 10, 5, 8, 9, 3, 6, 10, 4, 6, 9, 1, 7, 8, 2, 5, 10, 1, 2, 5, 5, 7, 8, 4, 6, 9, 2, 7, 8, 4, 5, 10, 5, 6, 9, 2, 7, 9, 3, 7, 10, 4, 6, 9, 5, 6, 10, 2, 3, 9, 2, 5, 6, 1, 4, 5, 4, 5, 9, 5, 6, 9, 4, 5, 8, 1, 5, 8, 2, 3, 10, 6, 7, 8, 2, 5, 6, 3, 4, 5, 1, 2, 5, 1, 3, 6, 3, 6, 9, 2, 3, 7, 2, 3, 10, 2, 7, 10, 3, 4, 5, 3, 4, 5, 3, 4, 5, 1, 3, 10, 1, 4, 5, 6, 7, 9, 1, 2, 7, 2, 3, 7, 3, 4, 7, 4, 5, 9, 1, 8, 10, 6, 7, 9, 1, 2, 5, 3, 7, 9, 2, 3, 6, 5, 8, 10, 3, 6, 10, 3, 4, 8, 2, 7, 9, 4, 5, 10, 2, 3, 10, 2, 5, 9, 1, 7, 10, 5, 6, 10, 2, 5, 6, 4, 5, 9, 1, 3, 6, 3, 7, 8, 3, 8, 10, 4, 9, 10, 3, 4, 10, 4, 8, 9, 1, 2, 3, 3, 4, 6, 2, 6, 8, 8, 9, 10, 6, 7, 9, 5, 6, 7, 1, 5, 8, 1, 8, 9, 2, 6, 10, 1, 9, 10, 6, 7, 8, 3, 6, 10, 2, 4, 5, 4, 6, 9, 2, 3, 7, 3, 8, 9, 1, 2, 7, 3, 9, 10, 5, 6, 10, 1, 7, 8, 2, 3, 9, 5, 8, 9, 1, 4, 6, 1, 2, 3, 1, 8, 10, 4, 5, 10, 5, 6, 7, 1, 2, 7];
rreq = [|6, 4, 2, 8, 6, 6, 5, 3, 3, 7, 7, 7, 8, 6, 5, 8, 6, 4, 8, 7, 6, 7, 7, 7, 8, 5, 1, 9, 7, 7, 10, 5, 3, 5, 3, 3, 10, 9, 7, 10, 10, 10, 8, 6, 3, 9, 6, 4, 7, 7, 3, 6, 4, 3, 6, 6, 4, 9, 8, 7, 5, 3, 2, 7, 5, 3, 7, 5, 4, 9, 6, 6, 9, 7, 5, 3, 2, 2, 7, 6, 5, 3, 3, 3, 3, 3, 2, 9, 7, 4, 8, 7, 6, 6, 6, 4, 7, 6, 3, 4, 2, 2, 4, 2, 2, 7, 5, 3, 8, 8, 6, 4, 4, 4, 7, 7, 7, 8, 8, 7, 8, 7, 5, 6, 6, 5, 6, 6, 6, 9, 9, 9, 5, 4, 3, 2, 2, 2, 9, 7, 6, 9, 8, 7, 6, 4, 3, 6, 4, 4, 6, 3, 3, 10, 9, 9, 8, 7, 6, 10, 9, 9, 10, 7, 4, 6, 3, 1, 7, 6, 4, 6, 5, 5, 4, 4, 3, 1, 1, 1, 5, 4, 3, 5, 4, 3, 4, 3, 3, 7, 7, 7, 7, 6, 3, 9, 7, 7, 7, 4, 1, 5, 5, 5, 3, 3, 1, 9, 8, 7, 7, 6, 6, 6, 5, 5, 7, 6, 4, 5, 4, 2, 7, 7, 7, 2, 2, 2, 5, 4, 2, 9, 9, 9, 8, 5, 4, 8, 7, 6, 9, 9, 8, 3, 3, 3, 4, 3, 3, 5, 3, 3, 7, 5, 3, 3, 3, 3, 4, 4, 3, 4, 3, 3, 8, 5, 4, 3, 2, 1, 7, 6, 2, 7, 5, 4, 8, 5, 4, 7, 6, 6, 9, 8, 8, 2, 1, 1, 4, 2, 2, 7, 7, 4, 3, 3, 3, 4, 3, 3
 |8, 8, 5, 7, 6, 3, 5, 4, 1, 7, 4, 3, 8, 7, 6, 8, 8, 6, 6, 4, 3, 6, 5, 4, 8, 8, 8, 4, 2, 2, 4, 4, 2, 6, 3, 1, 2, 2, 1, 4, 4, 4, 4, 4, 2, 10, 8, 7, 6, 4, 3, 8, 8, 8, 7, 7, 7, 9, 8, 7, 7, 6, 4, 7, 6, 6, 5, 5, 5, 8, 7, 7, 4, 3, 3, 10, 6, 6, 6, 6, 5, 8, 5, 4, 7, 7, 7, 7, 3, 3, 5, 5, 5, 5, 4, 3, 10, 9, 9, 5, 4, 3, 6, 4, 4, 5, 4, 4, 7, 7, 3, 4, 4, 4, 9, 9, 9, 8, 4, 3, 1, 1, 1, 2, 2, 1, 8, 6, 5, 8, 6, 4, 9, 4, 1, 7, 5, 4, 8, 5, 4, 2, 2, 2, 3, 3, 3, 8, 4, 3, 3, 2, 2, 6, 6, 4, 5, 5, 3, 4, 3, 3, 9, 5, 4, 10, 9, 9, 4, 3, 2, 7, 7, 7, 4, 4, 3, 4, 4, 3, 7, 6, 5, 8, 8, 8, 9, 6, 5, 9, 9, 8, 8, 7, 7, 3, 3, 3, 8, 8, 8, 2, 2, 1, 7, 7, 5, 3, 3, 3, 10, 5, 4, 5, 3, 3, 2, 2, 2, 10, 7, 7, 8, 8, 4, 8, 5, 4, 8, 6, 3, 9, 7, 7, 4, 3, 2, 7, 6, 3, 7, 3, 3, 9, 6, 5, 7, 4, 3, 5, 3, 2, 3, 3, 3, 6, 5, 2, 8, 5, 2, 7, 6, 4, 5, 5, 5, 3, 2, 2, 9, 7, 7, 8, 5, 4, 6, 5, 4, 5, 5, 3, 6, 6, 4, 8, 6, 5, 9, 8, 8, 3, 2, 1, 8, 6, 2, 10, 9, 7
 |10, 7, 5, 5, 3, 2, 4, 3, 3, 3, 3, 3, 7, 7, 5, 10, 9, 8, 10, 7, 6, 6, 6, 3, 8, 7, 7, 9, 8, 8, 5, 4, 4, 10, 8, 6, 6, 4, 2, 8, 6, 3, 6, 5, 5, 7, 7, 7, 10, 7, 4, 8, 6, 4, 8, 8, 7, 9, 9, 8, 4, 3, 2, 9, 8, 7, 6, 4, 4, 10, 7, 6, 3, 3, 1, 7, 4, 4, 5, 5, 2, 10, 7, 3, 3, 2, 2, 5, 3, 1, 3, 1, 1, 7, 7, 5, 7, 5, 4, 4, 2, 2, 5, 3, 3, 1, 1, 1, 10, 9, 8, 6, 5, 5, 7, 6, 5, 8, 4, 2, 8, 5, 2, 7, 7, 3, 6, 3, 2, 8, 6, 4, 7, 6, 6, 9, 8, 8, 7, 7, 5, 3, 3, 2, 7, 5, 4, 2, 1, 1, 9, 8, 8, 4, 3, 3, 2, 2, 2, 6, 4, 2, 9, 7, 5, 3, 3, 3, 7, 6, 6, 5, 3, 2, 6, 5, 2, 8, 5, 1, 6, 4, 2, 9, 8, 8, 2, 2, 2, 10, 6, 3, 6, 5, 2, 7, 7, 7, 7, 6, 5, 1, 1, 1, 6, 6, 6, 5, 2, 1, 10, 9, 9, 5, 5, 3, 4, 3, 3, 7, 7, 7, 1, 1, 1, 6, 4, 3, 6, 6, 5, 7, 6, 5, 7, 6, 3, 9, 6, 6, 8, 6, 4, 7, 6, 6, 2, 1, 1, 8, 6, 3, 3, 2, 2, 2, 2, 2, 9, 6, 5, 4, 4, 3, 7, 7, 7, 6, 4, 3, 9, 9, 9, 10, 6, 6, 9, 9, 8, 4, 3, 3, 7, 6, 4, 3, 2, 2, 6, 6, 5, 6, 4, 3, 3, 3, 3, 8, 8, 8
 |7, 6, 4, 8, 4, 2, 4, 4, 2, 8, 6, 4, 8, 6, 5, 3, 3, 1, 8, 8, 7, 4, 4, 3, 8, 7, 5, 5, 3, 2, 3, 2, 2, 6, 4, 3, 9, 6, 6, 4, 2, 2, 3, 2, 2, 9, 9, 9, 4, 2, 2, 7, 5, 4, 3, 3, 3, 6, 4, 3, 9, 9, 8, 4, 3, 3, 10, 5, 3, 4, 3, 3, 9, 7, 7, 5, 3, 1, 3, 2, 2, 2, 2, 2, 8, 8, 6, 9, 6, 4, 9, 8, 8, 8, 7, 4, 9, 8, 7, 9, 6, 6, 1, 1, 1, 8, 6, 4, 6, 5, 3, 5, 4, 3, 8, 7, 3, 8, 7, 6, 1, 1, 1, 6, 4, 3, 9, 7, 7, 7, 6, 3, 9, 5, 5, 2, 1, 1, 6, 5, 2, 8, 8, 7, 7, 5, 4, 8, 8, 7, 7, 6, 4, 7, 7, 7, 5, 5, 2, 7, 4, 2, 4, 4, 3, 6, 4, 3, 7, 5, 4, 8, 8, 7, 8, 5, 4, 4, 3, 2, 5, 5, 5, 5, 3, 3, 6, 3, 1, 7, 7, 4, 8, 6, 5, 4, 4, 4, 7, 5, 5, 4, 3, 2, 2, 2, 2, 3, 2, 2, 5, 5, 5, 6, 5, 5, 6, 5, 3, 4, 4, 4, 4, 2, 1, 7, 6, 6, 8, 6, 4, 4, 2, 2, 7, 6, 5, 10, 10, 10, 6, 5, 5, 7, 4, 2, 9, 7, 6, 6, 5, 4, 9, 4, 2, 9, 5, 4, 7, 7, 7, 6, 5, 1, 5, 3, 1, 6, 5, 5, 6, 5, 4, 9, 5, 3, 4, 4, 4, 9, 5, 2, 7, 4, 2, 4, 2, 2, 4, 3, 2, 7, 6, 6, 9, 7, 1, 10, 8, 6
 |5, 4, 4, 6, 3, 1, 9, 5, 3, 4, 3, 2, 5, 2, 1, 10, 10, 10, 6, 4, 2, 4, 2, 1, 9, 7, 7, 3, 3, 2, 8, 6, 6, 6, 4, 3, 6, 5, 5, 6, 4, 4, 6, 4, 2, 9, 9, 9, 2, 1, 1, 7, 4, 2, 9, 9, 8, 5, 2, 1, 7, 5, 4, 8, 7, 6, 7, 4, 3, 3, 2, 2, 4, 3, 2, 7, 5, 5, 3, 3, 2, 9, 6, 4, 8, 6, 6, 8, 6, 6, 9, 7, 6, 7, 6, 6, 6, 4, 4, 6, 6, 6, 6, 4, 2, 9, 6, 5, 4, 4, 4, 10, 9, 9, 6, 6, 6, 9, 5, 5, 7, 7, 5, 3, 3, 3, 7, 7, 6, 3, 2, 2, 9, 9, 9, 6, 3, 3, 5, 5, 5, 5, 5, 3, 4, 3, 2, 9, 9, 7, 8, 4, 4, 9, 9, 9, 8, 5, 4, 1, 1, 1, 6, 6, 6, 3, 2, 2, 7, 7, 7, 2, 2, 2, 8, 5, 3, 7, 6, 2, 5, 3, 3, 2, 2, 2, 10, 9, 8, 2, 1, 1, 8, 6, 2, 2, 1, 1, 5, 3, 3, 7, 4, 2, 4, 4, 3, 6, 6, 1, 7, 6, 6, 6, 6, 6, 4, 4, 4, 8, 8, 6, 5, 5, 5, 8, 6, 6, 5, 5, 5, 2, 1, 1, 6, 5, 5, 6, 4, 4, 8, 5, 3, 3, 3, 3, 4, 3, 3, 6, 5, 3, 5, 5, 3, 7, 7, 4, 8, 7, 7, 5, 4, 3, 8, 8, 8, 7, 6, 5, 10, 9, 8, 5, 4, 4, 8, 7, 7, 8, 5, 4, 10, 4, 4, 6, 6, 5, 8, 7, 7, 3, 2, 1, 9, 8, 8, 7, 7, 7
 |5, 3, 3, 2, 2, 2, 2, 1, 1, 6, 6, 6, 9, 9, 9, 9, 6, 2, 4, 3, 3, 6, 4, 3, 5, 3, 2, 5, 4, 2, 6, 6, 6, 2, 2, 2, 9, 9, 9, 3, 2, 2, 9, 9, 8, 10, 9, 7, 5, 3, 2, 5, 4, 4, 7, 6, 7, 7, 4, 3, 7, 7, 7, 6, 6, 6, 10, 7, 7, 10, 8, 8, 4, 3, 3, 5, 3, 3, 7, 7, 7, 6, 5, 5, 10, 10, 10, 2, 2, 2, 5, 4, 4, 4, 3, 2, 6, 4, 3, 6, 5, 2, 9, 5, 4, 10, 9, 9, 5, 4, 1, 2, 1, 1, 9, 6, 5, 9, 8, 8, 10, 8, 6, 5, 4, 3, 8, 7, 7, 10, 10, 10, 9, 6, 3, 9, 9, 9, 5, 5, 5, 7, 5, 3, 6, 6, 6, 9, 5, 3, 7, 4, 4, 8, 7, 7, 7, 7, 4, 7, 7, 3, 6, 4, 2, 8, 7, 2, 2, 2, 2, 8, 6, 6, 5, 5, 3, 4, 3, 2, 9, 7, 7, 6, 3, 2, 7, 5, 4, 7, 3, 2, 6, 5, 4, 9, 9, 7, 3, 3, 3, 5, 3, 1, 6, 3, 2, 7, 6, 6, 5, 4, 4, 10, 8, 8, 7, 6, 6, 2, 1, 1, 10, 10, 10, 8, 7, 6, 8, 6, 3, 9, 9, 9, 8, 4, 3, 9, 6, 4, 3, 3, 3, 8, 7, 7, 10, 8, 6, 9, 9, 9, 6, 4, 4, 2, 1, 1, 7, 5, 2, 7, 5, 3, 8, 7, 7, 7, 6, 5, 9, 8, 6, 10, 7, 1, 3, 3, 3, 8, 5, 3, 8, 5, 4, 10, 4, 2, 4, 3, 3, 7, 5, 5, 8, 7, 6, 7, 5, 5|];